
        $ From http://www.csplib.org/Problems/prob009/data/helmut.pdf
        $ Problem number 110
        $ Sequence length : 25
        language ESSENCE' 1.0
        letting sizemaster be 378
        letting sizes be sequence(2,3,10,17,18,20,21,22,24,27,31,38,41,48,51,56,68,78,80,85,87,96,117,165,213)
        